NAME: ACTUAL_TOURS/amz2882
TYPE: TOUR
COMMENT: RouteID_bde6edf8-0c49-4a0f-8406-a35a8d6ea69f
DIMENSION: 163
TOUR_SECTION
113
156
43
100
16
162
140
66
64
69
135
52
36
56
45
131
77
145
83
119
37
28
12
8
27
157
38
85
132
80
163
31
46
118
30
74
137
108
55
82
123
105
150
92
61
138
32
7
17
2
102
111
134
33
22
141
139
79
149
128
86
41
89
15
124
3
42
159
110
114
93
121
116
73
153
133
97
68
91
109
98
59
71
144
21
103
84
18
152
60
96
142
44
90
120
126
67
51
88
70
11
10
19
87
49
95
129
14
62
125
23
161
146
75
54
25
20
104
143
155
136
107
99
151
24
115
40
39
1
76
81
6
26
158
112
58
72
78
4
29
148
147
35
122
127
130
5
117
47
13
57
106
53
48
9
34
63
94
101
65
160
154
50
-1
EOF
